CPXPARAM_Emphasis_MIP#P8#2#6.299634#1.000000
CPXPARAM_Emphasis_MIP#P8#5#2.943423#0.467237
CPXPARAM_MIP_Cuts_Cliques#P13#0#1.017008#0.161439
CPXPARAM_MIP_Cuts_Cliques#P13#2#3.047727#0.483794
CPXPARAM_MIP_Cuts_MIRCut#P20#2#5.030073#0.798471
CPXPARAM_MIP_Strategy_NodeSelect#P39#1#4.523183#0.718007
CPXPARAM_MIP_Strategy_NodeSelect#P39#2#4.427335#0.702792
CPXPARAM_MIP_Strategy_NodeSelect#P39#3#1.400595#0.222330
